! hf-3c opt
* xyz 0 1
H 0.000 0.000 -0.500
H 0.000 0.000 0.500
*

